180 1611 
1 160 -1
1 154 -1
1 8 -1
1 48 1
1 62 -1
1 121 -1
1 97 -1
1 173 1
1 38 -1
1 81 -1
1 101 1
1 79 1
1 98 -1
2 144 -1
2 145 -1
2 18 1
2 101 -1
2 58 1
2 43 1
2 11 1
2 23 -1
2 108 -1
2 29 -1
2 167 1
2 35 -1
2 42 1
2 98 -1
2 83 1
2 82 1
3 143 1
3 56 1
3 159 1
3 156 -1
3 4 -1
3 70 1
3 176 -1
3 50 1
3 146 1
3 119 -1
3 138 -1
3 141 -1
3 17 -1
3 82 1
3 163 1
4 36 1
4 76 -1
4 130 1
4 11 1
4 126 1
4 69 1
4 78 1
4 115 1
4 152 -1
4 62 1
4 50 1
4 114 -1
4 139 1
4 131 -1
4 64 1
4 176 1
4 159 -1
4 47 -1
4 120 -1
4 18 -1
5 138 -1
5 151 1
5 73 1
5 144 1
5 172 1
5 99 1
5 177 1
5 35 -1
5 147 -1
5 154 1
5 127 -1
5 83 1
5 134 -1
5 77 -1
5 175 -1
5 111 -1
5 26 1
5 148 -1
5 112 -1
6 137 1
6 34 -1
6 102 -1
6 71 1
6 12 -1
6 131 -1
6 177 -1
6 81 -1
6 38 1
6 109 1
6 149 1
6 106 -1
7 140 -1
7 81 1
7 30 -1
7 83 1
7 22 1
7 113 -1
7 156 -1
7 119 1
7 177 -1
7 23 -1
7 160 -1
7 165 1
7 31 -1
7 71 1
7 27 -1
8 94 -1
8 16 1
8 74 -1
8 156 1
8 85 -1
8 124 1
8 139 1
8 175 1
8 133 1
8 146 -1
8 75 -1
8 70 -1
8 122 -1
8 95 -1
8 97 -1
9 31 1
9 139 -1
9 163 -1
9 121 -1
9 132 -1
9 125 1
9 167 1
9 95 1
9 29 1
9 47 -1
9 93 -1
9 148 -1
9 147 -1
9 58 1
9 106 1
9 86 1
9 109 1
9 176 1
9 23 -1
10 136 1
10 100 1
10 57 1
10 162 1
10 31 1
10 96 -1
10 169 -1
10 178 -1
10 49 1
10 15 -1
10 117 -1
10 65 1
10 126 1
10 70 1
10 122 -1
10 36 1
10 42 -1
10 177 -1
11 121 -1
11 128 1
11 147 -1
11 151 -1
11 45 -1
11 150 -1
11 13 -1
11 18 -1
11 143 -1
11 178 -1
11 117 -1
11 48 1
11 148 -1
11 33 -1
11 40 1
11 51 -1
11 155 -1
11 96 -1
12 143 -1
12 107 -1
12 26 -1
12 112 1
12 97 -1
12 167 1
12 73 -1
12 29 1
12 46 -1
12 30 -1
12 64 1
12 83 -1
12 52 1
12 81 -1
12 44 1
12 134 1
13 101 1
13 46 -1
13 44 -1
13 125 -1
13 62 1
13 177 -1
13 52 -1
13 151 -1
13 105 1
13 129 -1
13 98 -1
13 21 1
13 28 -1
13 23 -1
13 179 1
13 17 -1
13 77 1
14 84 -1
14 132 1
14 88 -1
14 144 1
14 173 1
14 77 -1
14 145 1
14 152 -1
14 126 1
14 45 -1
14 146 1
14 96 1
14 44 -1
15 116 1
15 34 1
15 137 1
15 72 -1
15 38 -1
15 141 -1
15 109 -1
15 53 -1
15 63 -1
15 80 -1
15 101 -1
15 110 -1
15 92 1
15 166 -1
15 81 1
15 150 1
15 49 1
16 44 1
16 166 -1
16 108 1
16 127 -1
16 138 1
16 135 1
16 155 -1
16 67 1
16 86 1
16 112 -1
16 31 -1
16 52 -1
16 48 1
16 56 -1
16 41 -1
17 41 -1
17 46 -1
17 95 -1
17 61 -1
17 69 -1
17 147 -1
17 25 -1
17 160 1
17 92 -1
17 126 1
17 107 -1
17 39 -1
17 170 -1
17 38 -1
17 175 1
17 90 1
17 48 1
18 33 -1
18 35 1
18 166 -1
18 124 1
18 42 -1
18 60 -1
18 133 1
18 89 -1
18 177 -1
18 30 -1
18 77 1
18 96 -1
18 21 -1
18 153 1
18 68 1
18 76 1
18 26 -1
18 126 -1
18 167 1
19 134 -1
19 27 1
19 138 -1
19 139 1
19 70 -1
19 172 -1
19 30 -1
19 149 -1
19 72 -1
19 178 1
19 146 -1
19 170 -1
19 89 1
19 82 1
19 113 -1
19 79 1
19 35 -1
20 152 -1
20 159 1
20 140 1
20 106 1
20 74 -1
20 81 -1
20 166 -1
20 139 -1
20 21 -1
20 59 1
20 30 -1
20 155 1
21 121 -1
21 133 1
21 102 -1
21 153 1
21 96 -1
21 107 -1
21 38 -1
21 60 -1
21 143 1
21 125 -1
21 85 1
21 31 1
21 59 1
21 51 -1
21 65 1
21 34 -1
21 42 -1
21 124 1
21 48 -1
21 80 -1
22 88 1
22 142 -1
22 140 -1
22 118 -1
22 158 1
22 136 1
22 25 -1
22 113 -1
22 89 -1
22 61 -1
22 175 1
22 27 -1
22 103 -1
23 161 -1
23 82 -1
23 62 1
23 117 1
23 36 1
23 67 1
23 178 -1
23 177 -1
23 58 -1
23 142 -1
23 30 -1
23 77 -1
23 136 1
23 83 1
23 51 -1
23 27 1
23 157 -1
23 119 -1
24 112 1
24 164 -1
24 97 1
24 30 1
24 39 -1
24 26 -1
24 106 -1
24 41 -1
24 55 -1
24 178 1
24 173 -1
24 67 1
24 113 -1
24 165 -1
24 95 1
24 49 -1
25 105 1
25 111 1
25 30 -1
25 71 1
25 65 -1
25 27 -1
25 141 1
25 149 1
25 168 1
25 98 -1
25 140 1
25 128 -1
25 69 1
25 96 1
26 135 -1
26 127 -1
26 114 -1
26 134 1
26 130 -1
26 111 1
26 74 1
26 94 -1
26 107 -1
26 132 1
26 41 -1
26 54 1
26 147 1
26 36 1
26 167 -1
26 87 1
26 63 1
27 31 1
27 84 -1
27 44 -1
27 50 1
27 109 -1
27 119 -1
27 56 -1
27 146 -1
27 65 -1
27 151 -1
27 107 1
27 47 1
28 65 1
28 174 1
28 167 -1
28 83 -1
28 79 -1
28 180 1
28 160 1
28 168 -1
28 176 1
28 101 -1
28 46 1
29 173 1
29 60 1
29 50 -1
29 37 -1
29 180 -1
29 54 -1
29 143 -1
29 125 -1
29 160 1
29 149 -1
29 136 -1
29 164 1
29 151 -1
29 170 1
29 172 -1
29 141 1
29 115 1
29 140 -1
29 48 1
29 42 1
30 140 1
30 135 1
30 53 -1
30 106 -1
30 111 1
30 60 -1
30 174 1
30 127 -1
30 170 1
30 39 -1
30 100 -1
30 123 1
30 102 -1
30 103 1
30 179 -1
30 153 -1
30 67 -1
30 113 -1
31 168 1
31 32 1
31 56 1
31 109 -1
31 73 -1
31 39 1
31 85 -1
31 136 -1
31 173 -1
31 130 -1
31 71 -1
31 104 -1
31 86 1
31 57 -1
31 117 -1
31 149 1
31 135 -1
31 89 -1
32 178 -1
32 154 -1
32 136 -1
32 74 -1
32 36 -1
32 61 1
32 135 -1
32 169 -1
32 167 1
32 43 -1
32 117 1
32 176 -1
32 98 1
32 139 1
33 125 1
33 56 -1
33 101 -1
33 123 -1
33 76 -1
33 126 -1
33 157 1
33 176 1
33 77 1
34 154 1
34 72 1
34 106 -1
34 117 -1
34 42 -1
34 136 -1
34 73 1
34 75 -1
34 164 1
34 67 1
34 45 -1
34 65 -1
34 172 -1
34 83 -1
34 43 1
34 88 -1
34 134 1
35 72 -1
35 45 1
35 43 1
35 114 1
35 115 -1
35 60 1
35 36 1
35 73 -1
35 75 1
35 131 -1
35 175 -1
36 174 -1
36 150 -1
36 41 -1
36 111 1
36 178 -1
36 127 1
36 140 -1
36 129 -1
36 162 1
36 102 -1
36 44 -1
36 125 1
36 160 -1
37 47 -1
37 39 1
37 80 -1
37 136 -1
37 69 -1
37 71 1
37 55 -1
37 70 -1
37 132 -1
37 159 1
37 146 -1
37 120 -1
37 147 1
37 105 -1
38 167 1
38 44 -1
38 87 1
38 106 -1
38 162 -1
38 108 1
38 169 1
38 178 -1
38 166 1
38 76 1
38 60 -1
38 42 -1
38 124 -1
39 105 1
39 54 1
39 60 -1
39 130 -1
39 168 -1
39 170 -1
39 137 1
39 150 -1
39 72 1
39 83 -1
39 110 1
39 161 -1
39 149 1
40 168 -1
40 82 -1
40 156 1
40 83 -1
40 140 1
40 80 -1
40 61 1
40 124 -1
40 77 -1
40 95 -1
40 123 -1
41 82 1
41 45 1
41 169 -1
41 60 -1
41 145 -1
41 116 1
41 105 1
41 129 1
41 100 1
41 122 -1
41 93 -1
41 174 -1
41 99 1
41 54 -1
42 132 -1
42 119 1
42 52 -1
42 59 1
42 118 1
42 137 1
42 61 1
42 44 -1
42 156 -1
42 75 1
42 82 1
42 162 1
42 163 1
42 146 -1
43 74 -1
43 98 -1
43 151 1
43 57 1
43 178 1
43 113 1
43 133 -1
43 63 -1
43 88 1
43 54 1
43 174 -1
43 87 1
43 110 1
43 51 1
43 67 -1
43 157 1
43 144 -1
43 105 1
43 78 -1
43 169 1
44 70 1
44 109 1
44 137 -1
44 74 1
44 96 -1
44 105 1
44 89 1
44 161 1
44 55 -1
44 172 -1
45 114 -1
45 57 -1
45 68 1
45 151 -1
45 110 1
45 160 1
45 79 1
45 100 -1
45 154 -1
45 180 1
45 63 -1
45 168 1
45 115 1
45 165 1
45 148 -1
45 58 1
46 65 1
46 73 1
46 129 -1
46 59 1
46 139 1
46 63 -1
46 116 1
46 95 -1
46 136 -1
46 176 -1
46 99 -1
47 98 1
47 102 -1
47 154 -1
47 99 1
47 171 -1
47 155 -1
47 117 -1
47 150 -1
48 51 1
48 94 -1
48 82 1
48 122 1
48 123 -1
48 168 -1
48 133 -1
48 70 -1
48 99 -1
48 101 -1
48 172 -1
48 59 -1
48 136 -1
48 92 -1
48 135 1
48 103 -1
48 147 1
48 86 -1
48 131 -1
48 177 -1
48 151 1
49 85 -1
49 116 -1
49 50 -1
49 113 -1
49 78 1
49 159 -1
49 76 -1
49 118 -1
49 150 -1
49 171 -1
49 161 1
49 55 -1
50 173 1
50 145 1
50 162 1
50 142 -1
50 117 1
50 139 1
50 176 1
50 74 -1
50 119 1
50 54 -1
50 71 -1
50 55 1
50 67 -1
50 155 1
50 109 -1
50 84 1
50 133 -1
50 62 1
50 72 -1
50 85 -1
51 57 1
51 132 -1
51 98 -1
51 65 1
51 71 -1
51 123 1
51 103 -1
51 174 1
51 168 -1
51 111 1
52 151 -1
52 143 1
52 149 -1
52 87 1
52 112 1
52 164 1
52 171 -1
52 78 1
52 108 1
52 91 1
52 123 -1
53 172 -1
53 71 -1
53 77 1
53 63 1
53 167 1
53 170 1
53 109 1
53 139 1
53 85 1
53 62 -1
53 134 1
53 96 -1
53 120 1
53 127 -1
53 125 1
53 163 -1
53 156 1
53 108 1
54 172 1
54 127 1
54 136 1
54 100 -1
54 165 1
54 115 -1
54 163 -1
55 179 1
55 96 1
55 97 1
55 123 1
55 167 1
55 147 -1
55 149 1
55 81 1
55 151 -1
55 63 1
55 154 -1
56 73 -1
56 118 -1
56 155 -1
56 58 1
56 123 -1
56 109 1
56 113 1
56 145 1
56 114 1
56 143 1
56 84 -1
56 64 -1
57 126 -1
57 180 -1
57 81 -1
57 83 -1
57 115 -1
57 168 -1
57 158 1
57 167 1
57 174 -1
57 145 -1
57 155 1
57 86 1
58 115 1
58 172 1
58 86 -1
58 129 -1
58 109 1
58 152 1
58 155 1
58 124 -1
58 65 1
58 170 -1
59 147 -1
59 62 1
59 79 1
59 98 1
59 122 -1
59 178 1
59 72 1
59 116 1
59 139 1
59 154 1
59 145 -1
59 165 1
60 156 -1
60 177 -1
60 107 -1
60 96 -1
60 144 1
60 179 1
61 112 1
61 122 -1
61 156 1
61 146 1
61 69 1
61 151 1
61 78 -1
61 125 -1
61 180 -1
61 159 -1
61 113 1
62 143 -1
62 155 -1
62 147 -1
62 162 -1
62 138 -1
62 97 -1
63 103 1
63 129 -1
63 70 -1
63 100 1
63 68 -1
63 113 -1
63 98 -1
63 102 1
63 73 1
63 80 1
63 151 1
63 83 -1
63 86 -1
63 131 1
63 167 -1
64 149 -1
64 108 1
64 70 -1
64 73 1
64 162 1
64 169 -1
64 90 -1
64 110 -1
64 121 -1
64 159 1
64 163 -1
64 91 -1
64 174 1
65 152 1
65 145 1
65 162 -1
65 89 1
65 171 -1
65 85 -1
65 92 -1
66 125 1
66 118 -1
66 129 1
66 138 1
66 69 1
66 145 -1
66 123 -1
66 136 -1
66 165 1
66 68 -1
66 176 1
66 101 1
66 95 -1
66 112 -1
67 110 1
67 130 -1
67 111 1
67 74 1
67 178 1
67 113 -1
67 103 1
67 72 -1
67 166 -1
67 76 -1
67 114 1
67 68 1
67 179 -1
67 96 1
68 137 1
68 105 1
68 148 -1
68 171 1
68 163 -1
68 72 -1
68 74 -1
68 167 -1
69 126 -1
69 141 1
69 138 1
69 118 -1
69 169 1
69 152 1
69 86 1
69 105 -1
69 155 -1
69 94 -1
69 109 -1
69 131 1
70 134 1
70 103 1
70 141 -1
70 87 -1
70 120 -1
70 156 -1
70 168 1
70 140 1
70 165 -1
70 85 1
70 97 -1
71 165 -1
71 149 1
71 82 1
71 122 -1
71 137 1
71 129 1
71 107 1
71 176 1
71 157 -1
71 125 -1
72 168 1
72 148 1
72 149 1
72 74 1
72 175 1
72 120 -1
72 144 1
72 141 1
72 153 -1
72 131 -1
72 143 1
72 98 1
73 91 -1
73 123 -1
73 180 1
73 102 1
73 132 1
73 88 1
73 135 1
73 147 1
73 94 1
73 110 1
73 177 -1
74 102 -1
74 177 -1
74 126 1
74 75 -1
74 134 -1
74 143 -1
74 175 -1
74 172 -1
74 144 1
74 119 -1
74 163 -1
74 158 -1
74 160 -1
74 135 -1
74 99 1
75 80 -1
75 103 -1
75 177 1
75 135 -1
75 86 1
75 148 1
75 114 1
75 162 1
76 178 -1
76 111 1
76 148 1
76 158 1
76 157 1
76 168 1
76 109 1
76 113 1
76 83 -1
76 141 1
76 93 -1
76 147 1
76 90 1
76 79 1
77 78 -1
77 174 1
77 137 1
77 179 1
77 116 1
77 128 -1
78 151 -1
78 104 -1
78 157 -1
78 80 -1
78 100 1
78 172 -1
78 127 -1
78 114 1
78 133 -1
78 103 -1
79 163 1
79 130 1
79 128 -1
79 135 -1
79 172 1
79 95 -1
79 159 -1
79 119 -1
79 126 -1
79 164 -1
79 160 -1
80 81 1
80 152 1
80 154 1
80 124 1
80 148 -1
80 82 -1
80 175 1
80 144 -1
80 126 1
81 141 1
81 108 -1
81 169 1
81 131 1
81 126 -1
81 174 1
81 104 -1
81 99 -1
81 135 -1
81 82 -1
81 133 -1
82 130 -1
82 150 -1
82 127 -1
82 126 1
82 101 -1
82 148 1
82 140 1
82 142 -1
82 97 1
82 119 1
83 146 -1
83 170 -1
83 108 1
83 138 -1
83 176 -1
83 139 -1
83 125 1
83 155 -1
84 146 -1
84 155 -1
84 124 1
84 92 1
84 142 1
84 161 1
84 89 1
85 173 1
85 112 -1
85 144 -1
85 86 -1
85 130 -1
85 123 -1
86 180 1
86 174 1
86 116 -1
86 152 1
86 123 1
86 166 -1
86 167 -1
86 107 -1
86 177 -1
86 153 1
87 97 -1
87 166 1
87 165 -1
87 118 1
87 100 -1
87 126 1
87 138 1
87 127 -1
87 151 -1
87 103 -1
88 158 -1
88 131 1
88 123 -1
88 151 -1
88 141 1
88 125 1
88 150 -1
88 113 -1
88 155 -1
88 92 -1
88 148 -1
89 147 1
89 143 -1
89 148 1
89 149 -1
89 161 1
89 132 -1
89 175 1
89 101 -1
90 95 1
90 101 1
90 167 -1
90 100 1
90 106 1
90 103 -1
90 114 1
90 145 -1
90 159 1
90 120 1
91 166 1
91 131 -1
91 180 1
91 169 -1
91 178 1
91 177 1
91 165 1
91 141 1
91 133 -1
91 146 -1
92 113 1
92 151 1
92 126 1
92 132 -1
92 120 1
92 124 -1
92 150 -1
92 147 1
92 173 1
92 155 1
93 145 -1
93 129 1
93 116 -1
93 168 -1
93 105 -1
93 171 -1
93 158 1
93 101 -1
94 95 1
94 133 1
94 158 -1
94 129 1
94 140 1
94 108 -1
94 154 1
94 145 -1
94 118 1
95 165 1
95 101 -1
95 133 1
95 160 -1
95 132 -1
95 149 1
95 180 -1
95 158 1
95 174 -1
96 116 -1
96 97 -1
96 102 1
96 128 -1
96 101 -1
96 159 1
96 100 -1
96 177 -1
97 163 1
97 122 -1
97 150 1
97 118 -1
97 173 1
97 145 -1
97 171 1
97 113 -1
98 116 -1
98 140 -1
98 120 -1
98 143 1
98 130 1
98 151 1
98 145 1
98 102 1
98 122 1
99 144 -1
99 115 -1
99 153 1
99 136 -1
99 150 -1
99 123 -1
99 163 1
99 133 -1
99 126 1
99 108 1
99 177 1
100 104 1
100 161 1
100 145 -1
100 154 1
100 152 1
100 173 1
101 121 1
101 132 -1
101 153 1
101 172 -1
101 122 1
101 105 1
101 141 -1
102 125 -1
102 137 -1
102 108 -1
102 140 -1
102 136 1
102 115 1
103 164 -1
103 140 -1
103 143 1
103 163 -1
103 144 -1
104 145 -1
104 112 -1
104 148 1
104 146 1
105 166 -1
105 163 -1
105 118 1
105 117 1
105 177 1
105 175 1
105 123 -1
105 139 1
106 146 1
106 132 -1
106 142 -1
106 126 1
106 155 -1
106 168 -1
106 112 1
106 133 -1
106 152 -1
106 177 -1
107 120 -1
107 145 -1
107 151 1
107 135 -1
107 123 1
107 113 -1
107 164 -1
108 111 1
108 147 1
108 136 -1
108 143 1
109 148 -1
109 117 -1
109 111 -1
109 140 -1
110 148 1
110 126 1
110 162 1
110 165 -1
110 151 -1
110 115 1
110 147 -1
110 170 1
110 133 -1
110 113 -1
110 114 -1
111 161 -1
111 171 1
111 153 -1
111 119 -1
111 156 1
111 137 -1
111 130 -1
111 115 -1
111 140 1
112 145 -1
112 161 1
112 143 1
113 129 1
113 162 -1
113 154 1
113 149 -1
113 166 -1
113 144 1
113 128 -1
113 117 -1
114 121 1
114 117 -1
114 168 -1
114 161 -1
114 149 1
115 169 -1
115 175 -1
115 139 -1
115 179 -1
115 117 -1
115 138 -1
115 133 -1
116 149 1
116 119 1
116 176 -1
116 174 1
116 124 1
116 136 1
116 138 -1
116 180 1
116 156 1
116 122 1
116 126 1
116 127 -1
116 159 -1
117 130 -1
117 124 1
117 129 1
117 134 1
117 154 1
117 163 -1
117 168 1
117 147 1
117 177 1
117 125 -1
117 135 1
117 142 -1
118 152 -1
118 150 1
118 141 1
118 142 -1
118 130 -1
119 149 -1
119 143 1
119 140 1
119 162 1
119 121 1
119 164 -1
120 147 1
120 128 1
120 158 -1
120 146 1
120 161 1
121 174 -1
121 166 -1
121 134 -1
121 170 1
121 175 1
121 163 -1
121 136 1
121 180 1
121 125 -1
121 145 1
122 176 -1
122 128 -1
122 162 -1
122 141 -1
122 152 -1
122 157 1
122 174 -1
123 138 -1
123 147 1
123 142 1
123 126 -1
124 170 -1
124 126 1
124 165 -1
124 160 1
124 147 1
125 135 -1
125 132 1
125 127 -1
125 178 -1
125 154 1
125 175 -1
125 167 -1
126 133 1
126 180 -1
126 153 1
126 127 1
126 143 1
126 134 -1
126 138 -1
126 131 1
126 171 -1
126 162 1
127 160 -1
127 162 1
127 168 1
127 130 -1
127 167 -1
127 146 -1
127 129 1
127 137 -1
127 139 1
127 157 1
127 169 1
127 163 -1
127 134 1
128 157 -1
128 142 -1
128 129 1
129 167 -1
129 136 1
129 163 -1
129 143 -1
130 153 -1
130 139 -1
130 158 1
131 140 1
131 167 -1
131 148 1
131 173 -1
131 153 1
132 170 1
132 172 1
132 169 1
132 174 1
132 144 -1
132 165 1
132 175 -1
132 146 1
132 149 -1
132 136 -1
132 134 1
133 141 1
133 177 1
133 134 1
133 144 -1
133 167 -1
133 139 1
133 136 1
133 169 -1
134 136 1
134 155 -1
134 145 -1
134 137 -1
134 152 -1
135 157 -1
135 169 1
135 173 1
135 174 1
136 180 1
136 168 1
136 157 1
136 144 -1
136 146 1
136 149 1
136 165 1
137 178 -1
137 155 1
137 159 1
137 152 1
137 169 -1
137 167 1
137 163 -1
138 172 -1
138 162 -1
138 163 1
138 161 1
138 154 -1
139 167 -1
139 177 1
139 143 1
139 148 -1
139 150 1
140 174 -1
140 158 -1
140 179 1
140 178 -1
140 180 1
140 168 -1
141 169 1
141 163 1
141 147 -1
141 150 -1
142 146 1
142 162 1
142 165 -1
143 157 -1
143 172 1
143 148 1
144 174 1
144 173 -1
144 150 -1
145 167 -1
146 157 -1
146 154 1
147 177 -1
147 168 -1
148 154 1
148 167 -1
148 149 1
148 172 -1
149 175 -1
149 151 -1
149 162 -1
149 157 1
149 163 1
150 177 -1
150 178 -1
150 171 1
150 161 -1
150 152 1
150 155 -1
150 165 -1
151 173 -1
151 155 -1
151 169 -1
151 157 1
151 158 1
152 175 1
152 172 1
152 171 -1
152 179 1
152 155 -1
153 154 1
153 160 -1
154 177 1
155 174 1
155 160 1
156 162 -1
157 169 -1
158 167 1
158 166 -1
159 167 -1
159 178 1
160 171 -1
160 178 -1
160 170 1
161 163 1
161 179 1
163 169 -1
164 169 1
164 176 1
164 168 -1
165 177 1
167 175 -1
167 173 1
167 180 1
167 176 1
167 169 1
169 180 1
169 174 -1
171 173 1
172 177 -1
174 176 -1
175 180 -1
175 177 -1
